c turning on binary mode checking
c parsing input formula with 259840 variables and 1039934 clauses
c finished parsing, read 3269418 bytes from proof file
c detected empty clause; start verification via backward checking
c 4565 of 1039934 clauses in core                            
c 1843 of 134179 lemmas in core using 61937 resolution steps
c 0 RAT lemmas in core; 348 redundant literals in core lemmas
s VERIFIED
c verification time: 1.332 seconds
